Reading model...
...model read.
creating competitive generators file...
...competitive generators recorded.
Loading data...
.. real-time data read.
Compiling instance...
...instance created.
Creating Offer Mitigation (model will solve as dispatch if TRUE)...
NOTE: storage offers will not be mitigated
...storage offer mitigation file created
Converting model to MPEC...
...converted
NOTE: initial MIP solve with only storage competitive to get feasible solution
Solving...

Welcome to IBM(R) ILOG(R) CPLEX(R) Interactive Optimizer 12.9.0.0
  with Simplex, Mixed Integer & Barrier Optimizers
5725-A06 5725-A29 5724-Y48 5724-Y49 5724-Y54 5724-Y55 5655-Y21
Copyright IBM Corp. 1988, 2019.  All Rights Reserved.

Type 'help' for a list of available commands.
Type 'help' followed by a command name for more
information on commands.

CPLEX> Logfile 'cplex.log' closed.
Logfile 'C:\Users\llavin\Desktop\test826\logs\tmpg1bkmwdn.cplex.log' open.
CPLEX> New value for parallel optimization mode: -1
CPLEX> New value for mixed integer optimality gap tolerance: 0.01
CPLEX> New value for feasibility tolerance: 1e-09
CPLEX> New value for deterministic time limit in ticks: 100000
CPLEX> Problem 'C:\Users\llavin\Desktop\test826\logs\tmpdx8v5qdg.pyomo.lp' read.
Read time = 0.55 sec. (28.52 ticks)
CPLEX> Problem name         : C:\Users\llavin\Desktop\test826\logs\tmpdx8v5qdg.pyomo.lp
Objective sense      : Maximize
Variables            :  107781  [Nneg: 1,  Box: 44056,  Free: 8928,
                                 Binary: 54796]
Objective nonzeros   :   17573
Linear constraints   :  246901  [Less: 82866,  Greater: 118424,  Equal: 45611]
  Nonzeros           :  618273
  RHS nonzeros       :  135077

Variables            : Min LB: -5000.000        Max UB: 1000000.       
Objective nonzeros   : Min   : 0.008333333      Max   : 208.3333       
Linear constraints   :
  Nonzeros           : Min   : 0.008333333      Max   : 1000000.       
  RHS nonzeros       : Min   : 0.008333333      Max   : 1000000.       
CPLEX> CPXPARAM_Parallel                                -1
CPXPARAM_Simplex_Tolerances_Feasibility          1.0000000000000001e-09
CPXPARAM_DetTimeLimit                            100000
CPXPARAM_MIP_Tolerances_MIPGap                   0.01
Tried aggregator 3 times.
MIP Presolve eliminated 180584 rows and 40758 columns.
MIP Presolve added 6244 rows and 0 columns.
MIP Presolve modified 50909 coefficients.
Aggregator did 25846 substitutions.
Reduced MIP has 46715 rows, 39695 columns, and 151427 nonzeros.
Reduced MIP has 15631 binaries, 0 generals, 0 SOSs, and 0 indicators.
Presolve time = 0.66 sec. (382.95 ticks)
Probing fixed 805 vars, tightened 8714 bounds.
Probing time = 0.39 sec. (14.43 ticks)
Tried aggregator 2 times.
MIP Presolve eliminated 1801 rows and 1611 columns.
MIP Presolve modified 5525 coefficients.
Aggregator did 48 substitutions.
Reduced MIP has 44866 rows, 38036 columns, and 146065 nonzeros.
Reduced MIP has 14826 binaries, 0 generals, 0 SOSs, and 0 indicators.
Presolve time = 0.25 sec. (226.58 ticks)
Probing fixed 0 vars, tightened 382 bounds.
Probing time = 0.52 sec. (15.61 ticks)
Clique table members: 87771.
MIP emphasis: balance optimality and feasibility.
MIP search method: dynamic search.
Parallel mode: opportunistic, using up to 32 threads.
Root relaxation solution time = 1.13 sec. (1836.61 ticks)

        Nodes                                         Cuts/
   Node  Left     Objective  IInf  Best Integer    Best Bound    ItCnt     Gap

      0     0      178.2896   163                    178.2896    10501         
*     0     0      integral     0      178.2896      178.2896    10523    0.00%
Elapsed time = 4.81 sec. (3874.70 ticks, tree = 0.01 MB, solutions = 1)

Root node processing (before b&c):
  Real time             =    4.84 sec. (3878.58 ticks)
Parallel b&c, 32 threads:
  Real time             =    0.00 sec. (0.00 ticks)
  Sync time (average)   =    0.00 sec.
  Wait time (average)   =    0.00 sec.
                          ------------
Total (root+branch&cut) =    4.84 sec. (3878.58 ticks)

Solution pool: 1 solution saved.

MIP - Integer optimal solution:  Objective =  1.7828956390e+02
Solution time =    4.86 sec.  Iterations = 10523  Nodes = 0
Deterministic time = 3878.89 ticks  (798.13 ticks/sec)

CPLEX> Incumbent solution written to file 'C:\Users\llavin\Desktop\test826\logs\tmpjv5esh1x.cplex.sol'.
CPLEX> NOTE: no warmstart specified for MIP iteration, default behavior is true
NOTE: resolving with all competitive generators using storage-only solution to warmstart
Solving...

Welcome to IBM(R) ILOG(R) CPLEX(R) Interactive Optimizer 12.9.0.0
  with Simplex, Mixed Integer & Barrier Optimizers
5725-A06 5725-A29 5724-Y48 5724-Y49 5724-Y54 5724-Y55 5655-Y21
Copyright IBM Corp. 1988, 2019.  All Rights Reserved.

Type 'help' for a list of available commands.
Type 'help' followed by a command name for more
information on commands.

CPLEX> Logfile 'cplex.log' closed.
Logfile 'C:\Users\llavin\Desktop\test826\logs\tmpcexv174x.cplex.log' open.
CPLEX> New value for parallel optimization mode: -1
CPLEX> New value for mixed integer optimality gap tolerance: 0.01
CPLEX> New value for feasibility tolerance: 1e-09
CPLEX> New value for deterministic time limit in ticks: 100000
CPLEX> Problem 'C:\Users\llavin\Desktop\test826\logs\tmpinmmwd7p.pyomo.lp' read.
Read time = 0.55 sec. (28.57 ticks)
CPLEX> MIP start file 'C:\Users\llavin\Desktop\test826\logs\tmpavj5xfdw.cplex.mst' read.
CPLEX> Problem name         : C:\Users\llavin\Desktop\test826\logs\tmpinmmwd7p.pyomo.lp
Objective sense      : Maximize
Variables            :  109221  [Nneg: 1,  Box: 45496,  Free: 8928,
                                 Binary: 54796]
Objective nonzeros   :   18965
Linear constraints   :  246901  [Less: 82866,  Greater: 118424,  Equal: 45611]
  Nonzeros           :  618273
  RHS nonzeros       :  135077

Variables            : Min LB: -5000.000        Max UB: 1000000.       
Objective nonzeros   : Min   : 0.008333333      Max   : 208.3333       
Linear constraints   :
  Nonzeros           : Min   : 0.008333333      Max   : 1000000.       
  RHS nonzeros       : Min   : 0.008333333      Max   : 1000000.       
CPLEX> CPXPARAM_Parallel                                -1
CPXPARAM_Simplex_Tolerances_Feasibility          1.0000000000000001e-09
CPXPARAM_DetTimeLimit                            100000
CPXPARAM_MIP_Tolerances_MIPGap                   0.01
1 of 1 MIP starts provided solutions.
MIP start 'm1' defined initial solution with objective 3066.5368.
Tried aggregator 3 times.
MIP Presolve eliminated 180584 rows and 42198 columns.
MIP Presolve added 6244 rows and 0 columns.
MIP Presolve modified 50909 coefficients.
Aggregator did 25846 substitutions.
Reduced MIP has 46715 rows, 39695 columns, and 151427 nonzeros.
Reduced MIP has 15631 binaries, 0 generals, 0 SOSs, and 0 indicators.
Presolve time = 0.66 sec. (383.68 ticks)
Probing fixed 805 vars, tightened 8714 bounds.
Probing time = 0.39 sec. (14.43 ticks)
Tried aggregator 2 times.
MIP Presolve eliminated 1801 rows and 1611 columns.
MIP Presolve modified 5525 coefficients.
Aggregator did 48 substitutions.
Reduced MIP has 44866 rows, 38036 columns, and 146065 nonzeros.
Reduced MIP has 14826 binaries, 0 generals, 0 SOSs, and 0 indicators.
Presolve time = 0.25 sec. (226.59 ticks)
Probing fixed 0 vars, tightened 359 bounds.
Probing time = 0.55 sec. (15.42 ticks)
Clique table members: 87921.
MIP emphasis: balance optimality and feasibility.
MIP search method: dynamic search.
Parallel mode: opportunistic, using up to 32 threads.
Root relaxation solution time = 1.08 sec. (1811.70 ticks)

        Nodes                                         Cuts/
   Node  Left     Objective  IInf  Best Integer    Best Bound    ItCnt     Gap

*     0+    0                         3066.5368   1.02042e+07              --- 
      0     0     3078.9281   232     3066.5368     3078.9281    10540    0.40%

Root node processing (before b&c):
  Real time             =    3.88 sec. (3010.00 ticks)
Parallel b&c, 32 threads:
  Real time             =    0.00 sec. (0.00 ticks)
  Sync time (average)   =    0.00 sec.
  Wait time (average)   =    0.00 sec.
                          ------------
Total (root+branch&cut) =    3.88 sec. (3010.00 ticks)

Solution pool: 1 solution saved.

MIP - Integer optimal, tolerance (0.01/1e-06):  Objective =  3.0665367751e+03
Current MIP best bound =  3.0789280722e+03 (gap = 12.3913, 0.40%)
Solution time =    3.89 sec.  Iterations = 10540  Nodes = 0 (1)
Deterministic time = 3010.31 ticks  (773.86 ticks/sec)

CPLEX> Incumbent solution written to file 'C:\Users\llavin\Desktop\test826\logs\tmp2spxh3l_.cplex.sol'.
CPLEX> Exporting results... 
